75
[15,16,17,18,19,20,21,22,23,24,25,26,27,28,29,30,31,32,33,34,35,36,37,38,39,40,41,42,43,44,45,46,47,48,49,50,51,52,53,54,55,56,57,58,59,60]
[11,12,20,10,9,11,10,15,8,9,8,14,12,14,10,13,5,6,17,13,10,9,10,14,12,9,7,15,6,10,11,9,15,14,13,9,10,9,11,9,10,10,13,7,12,9]
